 %BLOCK LATTICE_CART
   6.3000000000000007        0.0000000000000000        0.0000000000000000     
   0.0000000000000000        6.3000000000000007        0.0000000000000000     
   0.0000000000000000        0.0000000000000000        21.000000000000000     
 %ENDBLOCK LATTICE_CART

 %BLOCK POSITIONS_FRAC
 Ca   0.0000000000000000        0.0000000000000000        0.0000000000000000     
 O   0.0000000000000000        0.0000000000000000       0.10000000000000001     
 O   0.0000000000000000        0.0000000000000000       0.90000000000000002     
 O   0.0000000000000000       0.33333333333333331        0.0000000000000000     
 Mg   0.0000000000000000       0.33333333333333331       0.10000000000000001     
 Ca   0.0000000000000000       0.33333333333333331       0.90000000000000002     
 Ca   0.0000000000000000       0.66666666666666663        0.0000000000000000     
 O   0.0000000000000000       0.66666666666666663       0.10000000000000001     
 O   0.0000000000000000       0.66666666666666663       0.90000000000000002     
 O  0.33333333333333331        0.0000000000000000        0.0000000000000000     
 Mg  0.33333333333333331        0.0000000000000000       0.10000000000000001     
 Ca  0.33333333333333331        0.0000000000000000       0.90000000000000002     
 Ca  0.33333333333333331       0.33333333333333331        0.0000000000000000     
 O  0.33333333333333331       0.33333333333333331       0.10000000000000001     
 O  0.33333333333333331       0.33333333333333331       0.90000000000000002     
 O  0.33333333333333331       0.66666666666666663        0.0000000000000000     
 Mg  0.33333333333333331       0.66666666666666663       0.10000000000000001     
 Ca  0.33333333333333331       0.66666666666666663       0.90000000000000002     
 Ca  0.66666666666666663        0.0000000000000000        0.0000000000000000     
 O  0.66666666666666663        0.0000000000000000       0.10000000000000001     
 O  0.66666666666666663        0.0000000000000000       0.90000000000000002     
 O  0.66666666666666663       0.33333333333333331        0.0000000000000000     
 Mg  0.66666666666666663       0.33333333333333331       0.10000000000000001     
 Ca  0.66666666666666663       0.33333333333333331       0.90000000000000002     
 Mg  0.66666666666666663       0.66666666666666663        0.0000000000000000     
 O  0.66666666666666663       0.66666666666666663       0.10000000000000001     
 O  0.66666666666666663       0.66666666666666663       0.90000000000000002     
 %ENDBLOCK POSITIONS_FRAC

 kpoints_mp_grid           3           3           3
 symmetry_generate
 %BLOCK CELL_CONSTRAINTS
           1           1           0
           0           0           0
 %ENDBLOCK CELL_CONSTRAINTS
